g3 1 1 0	# problem orthodeuterium
 2 0 14 0 0 	# vars, constraints, objectives, ranges, eqns
 0 13 0 0 0 0	# nonlinear constrs, objs; ccons: lin, nonlin, nd, nzlb
 0 0	# network constraints: nonlinear, linear
 0 2 0 	# nonlinear vars in constraints, objectives, both
 0 0 0 1	# linear network variables; functions; arith, flags
 0 0 0 0 0 	# discrete variables: binary, integer, nonlinear (b,c,o)
 0 20 	# nonzeros in Jacobian, obj. gradient
 0 0	# max name lengths: constraints, variables
 0 0 0 0 0	# common exprs: b,c,o,c1,o1
O0 0
o0
o54
14
o43
v0
o2
n1.5
o43
v1
o2
n4.04482
o43
o0
o16
o44
o2
n-41.49713093375065
v1
n1
o2
n-4.65391
o43
o0
o16
o44
o2
n-12.56129368805425
v1
n1
o2
n-4.65342
o43
o0
o16
o44
o2
n-12.32133541992697
v1
n1
o2
n3.46313
o43
o0
o16
o44
o2
n-9.447052686489306
v1
n1
o2
n-4.58637
o43
o0
o16
o44
o2
n-53.15597287428273
v1
n1
o2
n-4.6503
o43
o0
o16
o44
o2
n-12.08137715179969
v1
n1
o2
n-4.65124
o43
o0
o16
o44
o2
n-12.81429316640584
v1
n1
o2
n2.67024
o43
o0
o16
o44
o2
n-70.77203964527908
v1
n1
o2
n15.20455
o43
o0
o16
o44
o2
n-16.13458528951487
v1
n1
o2
n0.87164
o43
o0
o16
o44
o2
n-225.4042775169536
v1
n1
o2
n-4.7608
o43
o0
o16
o44
o2
n-25.08346374543558
v1
n1
o2
n4.32447
o43
o0
o16
o44
o2
n-6.604068857589984
v1
n1
n-2.0672670563
O1 0
o5
v0
n-1.0
O2 0
o16
o5
v0
n-2.0
O3 0
o0
o54
13
o2
n1.5
o5
v1
n-1.0
o2
o2
n32.71637157016171
o5
o0
o16
o44
o2
n-9.447052686489306
v1
n1.0
n-1.0
o44
o2
n-9.447052686489306
v1
o2
o2
n188.97833114241
o5
o0
o16
o44
o2
n-70.77203964527908
v1
n1.0
n-1.0
o44
o2
n-70.77203964527908
v1
o2
o2
n167.84842514345328
o5
o0
o16
o44
o2
n-41.49713093375065
v1
n1.0
n-1.0
o44
o2
n-41.49713093375065
v1
o2
o2
n196.47138445487744
o5
o0
o16
o44
o2
n-225.4042775169536
v1
n1.0
n-1.0
o44
o2
n-225.4042775169536
v1
o2
o2
n28.559097652582157
o5
o0
o16
o44
o2
n-6.604068857589984
v1
n1.0
n-1.0
o44
o2
n-6.604068857589984
v1
o2
o2
n245.31910876369332
o5
o0
o16
o44
o2
n-16.13458528951487
v1
n1.0
n-1.0
o44
o2
n-16.13458528951487
v1
o2
o2
n-57.33634866979655
o5
o0
o16
o44
o2
n-12.32133541992697
v1
n1.0
n-1.0
o44
o2
n-12.32133541992697
v1
o2
o2
n-59.60235294731349
o5
o0
o16
o44
o2
n-12.81429316640584
v1
n1.0
n-1.0
o44
o2
n-12.81429316640584
v1
o2
o2
n-56.182028169014096
o5
o0
o16
o44
o2
n-12.08137715179969
v1
n1.0
n-1.0
o44
o2
n-12.08137715179969
v1
o2
o2
n-58.45913030777255
o5
o0
o16
o44
o2
n-12.56129368805425
v1
n1.0
n-1.0
o44
o2
n-12.56129368805425
v1
o2
o2
n-119.4173541992697
o5
o0
o16
o44
o2
n-25.08346374543558
v1
n1.0
n-1.0
o44
o2
n-25.08346374543558
v1
o2
o2
n-243.79295931142408
o5
o0
o16
o44
o2
n-53.15597287428273
v1
n1.0
n-1.0
o44
o2
n-53.15597287428273
v1
n2.4234599781
O4 0
o54
25
o2
n-1.5
o5
v1
n-2.0
o2
o2
n706.4603837144468
o5
o0
o16
o44
o2
n-12.32133541992697
v1
n1.0
n-1.0
o44
o2
n-12.32133541992697
v1
o2
o2
n706.4603837144468
o5
o0
o16
o44
o2
n-12.32133541992697
v1
n1.0
n-2.0
o44
o2
n-24.64267083985394
v1
o2
o2
n763.7620240744682
o5
o0
o16
o44
o2
n-12.81429316640584
v1
n1.0
n-1.0
o44
o2
n-12.81429316640584
v1
o2
o2
n763.7620240744682
o5
o0
o16
o44
o2
n-12.81429316640584
v1
n1.0
n-2.0
o44
o2
n-25.62858633281168
v1
o2
o2
n734.3223045441641
o5
o0
o16
o44
o2
n-12.56129368805425
v1
n1.0
n-1.0
o44
o2
n-12.56129368805425
v1
o2
o2
n734.3223045441641
o5
o0
o16
o44
o2
n-12.56129368805425
v1
n1.0
n-2.0
o44
o2
n-25.1225873761085
v1
o2
o2
n678.7562714628936
o5
o0
o16
o44
o2
n-12.08137715179969
v1
n1.0
n-1.0
o44
o2
n-12.08137715179969
v1
o2
o2
n678.7562714628936
o5
o0
o16
o44
o2
n-12.08137715179969
v1
n1.0
n-2.0
o44
o2
n-24.16275430359938
v1
o2
o2
n2995.4008746332206
o5
o0
o16
o44
o2
n-25.08346374543558
v1
n1.0
n-1.0
o44
o2
n-25.08346374543558
v1
o2
o2
n2995.4008746332206
o5
o0
o16
o44
o2
n-25.08346374543558
v1
n1.0
n-2.0
o44
o2
n-50.16692749087116
v1
o2
o2
n12959.051932099172
o5
o0
o16
o44
o2
n-53.15597287428273
v1
n1.0
n-1.0
o44
o2
n-53.15597287428273
v1
o2
o2
n12959.051932099172
o5
o0
o16
o44
o2
n-53.15597287428273
v1
n1.0
n-2.0
o44
o2
n-106.31194574856546
v1
o2
o2
n-6965.228075201725
o5
o0
o16
o44
o2
n-41.49713093375065
v1
n1.0
n-1.0
o44
o2
n-41.49713093375065
v1
o2
o2
n-6965.228075201725
o5
o0
o16
o44
o2
n-41.49713093375065
v1
n1.0
n-2.0
o44
o2
n-82.9942618675013
v1
o2
o2
n-13374.381943709319
o5
o0
o16
o44
o2
n-70.77203964527908
v1
n1.0
n-1.0
o44
o2
n-70.77203964527908
v1
o2
o2
n-13374.381943709319
o5
o0
o16
o44
o2
n-70.77203964527908
v1
n1.0
n-2.0
o44
o2
n-141.54407929055816
v1
o2
o2
n-44285.49046580728
o5
o0
o16
o44
o2
n-225.4042775169536
v1
n1.0
n-1.0
o44
o2
n-225.4042775169536
v1
o2
o2
n-44285.49046580728
o5
o0
o16
o44
o2
n-225.4042775169536
v1
n1.0
n-2.0
o44
o2
n-450.8085550339072
v1
o2
o2
n-3958.122083495585
o5
o0
o16
o44
o2
n-16.13458528951487
v1
n1.0
n-1.0
o44
o2
n-16.13458528951487
v1
o2
o2
n-3958.122083495585
o5
o0
o16
o44
o2
n-16.13458528951487
v1
n1.0
n-2.0
o44
o2
n-32.26917057902974
v1
o2
o2
n-309.07328593407857
o5
o0
o16
o44
o2
n-9.447052686489306
v1
n1.0
n-1.0
o44
o2
n-9.447052686489306
v1
o2
o2
n-309.07328593407857
o5
o0
o16
o44
o2
n-9.447052686489306
v1
n1.0
n-2.0
o44
o2
n-18.89410537297861
v1
o2
o2
n-188.60624740828902
o5
o0
o16
o44
o2
n-6.604068857589984
v1
n1.0
n-1.0
o44
o2
n-6.604068857589984
v1
o2
o2
n-188.60624740828902
o5
o0
o16
o44
o2
n-6.604068857589984
v1
n1.0
n-2.0
o44
o2
n-13.208137715179967
v1
O5 0
o54
21
o2
o2
n0.006267958
o5
v0
n4
v1
o2
o2
n10.53609
v0
o5
v1
n0.462
o2
o2
n-10.14149
v0
o5
v1
n0.5584
o2
o2
n0.356061
o5
v0
n2
o5
v1
n0.627
o2
o2
n0.1824472
o5
v0
n3
o5
v1
n1.201
o2
o2
n-1.129638
v0
o5
v1
n0.309
o2
o2
n-0.0549812
o5
v0
n3
o5
v1
n1.314
o2
o2
n-0.6791329
o5
v0
n2
o5
v1
n1.1166
o2
o2
o2
n1.347918
o5
v0
n2
o5
v1
n1.25
o44
o2
n-1.0
v0
o2
o2
o2
n-0.8657582
o5
v0
n2
o5
v1
n1.25
o44
o2
n-1.0
v0
o2
o2
o2
n1.719146
v0
o5
v1
n1.395
o44
o16
o5
v0
n2
o2
o2
o2
n-1.917977
v0
o5
v1
n1.627
o44
o16
o5
v0
n2
o2
o2
o2
n0.1233365
o5
v0
n3
v1
o44
o16
o5
v0
n2
o2
o2
o2
n-0.07936891
o5
v0
n2
o5
v1
n2.5
o44
o16
o5
v0
n2
o2
o2
o2
n1.686617
v0
o5
v1
n0.635
o44
o0
o2
n-0.868
o5
o0
v0
n-1.46
n2
o2
n-0.613
o5
o0
v1
n-0.6306
n2
o2
o2
o2
n-4.240326
v0
o5
v1
n0.664
o44
o0
o2
n-0.636
o5
o0
v0
n-1.7864
n2
o2
n-0.584
o5
o0
v1
n-0.711
n2
o2
o2
o2
n1.857114
o5
v0
n2
o5
v1
n0.7082
o44
o0
o2
n-0.668
o5
o0
v0
n-1.647
n2
o2
n-0.57
o5
o0
v1
n-0.6446
n2
o2
o2
o2
n-0.5903705
o5
v0
n3
o5
v1
n2.25
o44
o0
o2
n-0.65
o5
o0
v0
n-0.541
n2
o2
n-1.056
o5
o0
v1
n-0.8226
n2
o2
o2
o2
n1.520171
o5
v0
n3
o5
v1
n1.524
o44
o0
o2
n-0.745
o5
o0
v0
n-0.969
n2
o2
n-1.01
o5
o0
v1
n-0.992
n2
o2
o2
o2
n2.361373
v0
o5
v1
n0.67
o44
o0
o2
n-0.782
o5
o0
v0
n-1.892
n2
o2
n-1.025
o5
o0
v1
n-1.2184
n2
o2
o2
o2
n-2.297315
o5
v0
n3
o5
v1
n0.709
o44
o0
o2
n-0.693
o5
o0
v0
n-1.076
n2
o2
n-1.029
o5
o0
v1
n-1.203
n2
O6 0
o54
32
o2
n10.53609
o5
v1
n0.462
o2
n-1.129638
o5
v1
n0.309
o2
n-10.14149
o5
v1
n0.5584
o2
o2
n1.686617
o5
v1
n0.635
o44
o0
o2
n-0.613
o5
o0
v1
n-0.6306
n2.0
o2
n-0.868
o5
o0
v0
n-1.46
n2.0
o2
o2
n0.5473416
o5
v0
n2.0
o5
v1
n1.201
o2
o2
n2.361373
o5
v1
n0.67
o44
o0
o2
n-0.782
o5
o0
v0
n-1.892
n2.0
o2
n-1.025
o5
o0
v1
n-1.2184
n2.0
o2
o2
n0.712122
v0
o5
v1
n0.627
o2
o2
n0.025071832
v1
o5
v0
n3.0
o2
o2
n1.719146
o5
v1
n1.395
o44
o16
o5
v0
n2.0
o2
o2
n-4.240326
o5
v1
n0.664
o44
o0
o2
n-0.584
o5
o0
v1
n-0.711
n2.0
o2
n-0.636
o5
o0
v0
n-1.7864
n2.0
o2
o2
n-1.917977
o5
v1
n1.627
o44
o16
o5
v0
n2.0
o2
o2
n-0.1649436
o5
v0
n2.0
o5
v1
n1.314
o2
o2
n-1.3582658
v0
o5
v1
n1.1166
o2
o2
o2
n4.560513
o5
v0
n2.0
o5
v1
n1.524
o44
o0
o2
n-1.01
o5
o0
v1
n-0.992
n2.0
o2
n-0.745
o5
o0
v0
n-0.969
n2.0
o2
o2
o2
n0.3700095
v1
o5
v0
n2.0
o44
o16
o5
v0
n2.0
o2
o2
o2
n3.835954
o5
v0
n2.0
o5
v1
n1.627
o44
o16
o5
v0
n2.0
o2
o2
o2
n0.9643195999999998
v0
o5
v1
n1.25
o44
o2
n-1.0
v0
o2
o2
o2
n0.15873782
o5
v0
n3.0
o5
v1
n2.5
o44
o16
o5
v0
n2.0
o2
o2
o2
n3.714228
v0
o5
v1
n0.7082
o44
o0
o2
n-0.57
o5
o0
v1
n-0.6446
n2.0
o2
n-0.668
o5
o0
v0
n-1.647
n2.0
o2
o2
o2
n-1.7711115
o5
v0
n2.0
o5
v1
n2.25
o44
o0
o2
n-1.056
o5
o0
v1
n-0.8226
n2.0
o2
n-0.65
o5
o0
v0
n-0.541
n2.0
o2
o2
o2
n-0.4821597999999999
o5
v0
n2.0
o5
v1
n1.25
o44
o2
n-1.0
v0
o2
o2
o2
n-0.15873782
v0
o5
v1
n2.5
o44
o16
o5
v0
n2.0
o2
o2
o2
n-3.438292
o5
v0
n2.0
o5
v1
n1.395
o44
o16
o5
v0
n2.0
o2
o2
o2
n-6.891945000000001
o5
v0
n2.0
o5
v1
n0.709
o44
o0
o2
n-1.029
o5
o0
v1
n-1.203
n2.0
o2
n-0.693
o5
o0
v0
n-1.076
n2.0
o2
o2
o2
n-0.246673
v1
o5
v0
n4.0
o44
o16
o5
v0
n2.0
o2
o2
o2
o2
n1.686617
v0
o5
v1
n0.635
o0
o2
n-1.736
v0
n2.53456
o44
o0
o2
n-0.613
o5
o0
v1
n-0.6306
n2.0
o2
n-0.868
o5
o0
v0
n-1.46
n2.0
o2
o2
o2
o2
n1.520171
o5
v0
n3.0
o5
v1
n1.524
o0
o2
n-1.49
v0
n1.44381
o44
o0
o2
n-1.01
o5
o0
v1
n-0.992
n2.0
o2
n-0.745
o5
o0
v0
n-0.969
n2.0
o2
o2
o2
o2
n2.361373
v0
o5
v1
n0.67
o0
o2
n-1.564
v0
n2.959088
o44
o0
o2
n-0.782
o5
o0
v0
n-1.892
n2.0
o2
n-1.025
o5
o0
v1
n-1.2184
n2.0
o2
o2
o2
o2
n1.857114
o5
v0
n2.0
o5
v1
n0.7082
o0
o2
n-1.336
v0
n2.2003920000000003
o44
o0
o2
n-0.57
o5
o0
v1
n-0.6446
n2.0
o2
n-0.668
o5
o0
v0
n-1.647
n2.0
o2
o2
o2
o2
n-4.240326
v0
o5
v1
n0.664
o0
o2
n-1.272
v0
n2.2723008
o44
o0
o2
n-0.584
o5
o0
v1
n-0.711
n2.0
o2
n-0.636
o5
o0
v0
n-1.7864
n2.0
o2
o2
o2
o2
n-2.297315
o5
v0
n3.0
o5
v1
n0.709
o0
o2
n-1.386
v0
n1.491336
o44
o0
o2
n-1.029
o5
o0
v1
n-1.203
n2.0
o2
n-0.693
o5
o0
v0
n-1.076
n2.0
o2
o2
o2
o2
n-0.5903705
o5
v0
n3.0
o5
v1
n2.25
o0
o2
n-1.3
v0
n0.7033
o44
o0
o2
n-1.056
o5
o0
v1
n-0.8226
n2.0
o2
n-0.65
o5
o0
v0
n-0.541
n2.0
O7 0
o54
51
o2
n0.712122
o5
v1
n0.627
o2
n-1.3582658
o5
v1
n1.1166
o2
o2
n0.07521549599999999
v1
o5
v0
n2.0
o2
o2
n1.0946832
o5
v1
n1.201
v0
o2
o2
n0.9643195999999998
o5
v1
n1.25
o44
o2
n-1.0
v0
o2
o2
n3.714228
o5
v1
n0.7082
o44
o0
o2
n-0.57
o5
o0
v1
n-0.6446
n2.0
o2
n-0.668
o5
o0
v0
n-1.647
n2.0
o2
o2
n-0.15873782
o5
v1
n2.5
o44
o16
o5
v0
n2.0
o2
o2
n-0.3298872
o5
v1
n1.314
v0
o2
o2
o2
n9.121026
o5
v1
n1.524
v0
o44
o0
o2
n-1.01
o5
o0
v1
n-0.992
n2.0
o2
n-0.745
o5
o0
v0
n-0.969
n2.0
o2
o2
o2
n0.7936890999999999
o5
v1
n2.5
o5
v0
n2.0
o44
o16
o5
v0
n2.0
o2
o2
o2
n1.686617
o5
v1
n0.635
o0
o2
n-1.736
v0
n2.53456
o44
o0
o2
n-0.613
o5
o0
v1
n-0.6306
n2.0
o2
n-0.868
o5
o0
v0
n-1.46
n2.0
o2
o2
o2
n11.507862
o5
v1
n1.627
v0
o44
o16
o5
v0
n2.0
o2
o2
o2
n0.740019
v1
v0
o44
o16
o5
v0
n2.0
o2
o2
o2
n0.4821597999999999
o5
v1
n1.25
o5
v0
n2.0
o44
o2
n-1.0
v0
o2
o2
o2
n2.361373
o5
v1
n0.67
o0
o2
n-1.564
v0
n2.959088
o44
o0
o2
n-0.782
o5
o0
v0
n-1.892
n2.0
o2
n-1.025
o5
o0
v1
n-1.2184
n2.0
o2
o2
o2
n5.393694672
v0
o5
v1
n0.664
o44
o0
o2
n-0.584
o5
o0
v1
n-0.711
n2.0
o2
n-0.636
o5
o0
v0
n-1.7864
n2.0
o2
o2
o2
n5.393694672
o5
v1
n0.664
o0
v0
n-1.7864
o44
o0
o2
n-0.584
o5
o0
v1
n-0.711
n2.0
o2
n-0.636
o5
o0
v0
n-1.7864
n2.0
o2
o2
o2
n0.76748165
o5
v1
n2.25
o5
v0
n3.0
o44
o0
o2
n-1.056
o5
o0
v1
n-0.8226
n2.0
o2
n-0.65
o5
o0
v0
n-0.541
n2.0
o2
o2
o2
n3.18407859
o5
v1
n0.709
o5
v0
n3.0
o44
o0
o2
n-1.029
o5
o0
v1
n-1.203
n2.0
o2
n-0.693
o5
o0
v0
n-1.076
n2.0
o2
o2
o2
n6.876584
o5
v1
n1.395
o5
v0
n3.0
o44
o16
o5
v0
n2.0
o2
o2
o2
n0.493346
v1
o5
v0
n5.0
o44
o16
o5
v0
n2.0
o2
o2
o2
n-3.542223
o5
v1
n2.25
v0
o44
o0
o2
n-1.056
o5
o0
v1
n-0.8226
n2.0
o2
n-0.65
o5
o0
v0
n-0.541
n2.0
o2
o2
o2
n-1.7267109999999999
v1
o5
v0
n3.0
o44
o16
o5
v0
n2.0
o2
o2
o2
n-4.240326
o5
v1
n0.664
o0
o2
n-1.272
v0
n2.2723008
o44
o0
o2
n-0.584
o5
o0
v1
n-0.711
n2.0
o2
n-0.636
o5
o0
v0
n-1.7864
n2.0
o2
o2
o2
n-2.2650547899999998
o5
v1
n1.524
o5
v0
n3.0
o44
o0
o2
n-1.01
o5
o0
v1
n-0.992
n2.0
o2
n-0.745
o5
o0
v0
n-0.969
n2.0
o2
o2
o2
n-2.927967112
v0
o5
v1
n0.635
o44
o0
o2
n-0.613
o5
o0
v1
n-0.6306
n2.0
o2
n-0.868
o5
o0
v0
n-1.46
n2.0
o2
o2
o2
n-2.927967112
o5
v1
n0.635
o0
v0
n-1.46
o44
o0
o2
n-0.613
o5
o0
v1
n-0.6306
n2.0
o2
n-0.868
o5
o0
v0
n-1.46
n2.0
o2
o2
o2
n-7.671908
o5
v1
n1.627
o5
v0
n3.0
o44
o16
o5
v0
n2.0
o2
o2
o2
n-0.9643195999999998
v0
o5
v1
n1.25
o44
o2
n-1.0
v0
o2
o2
o2
n-0.9643195999999998
o5
v1
n1.25
v0
o44
o2
n-1.0
v0
o2
o2
o2
n-2.481104304
o5
v1
n0.7082
o5
v0
n2.0
o44
o0
o2
n-0.57
o5
o0
v1
n-0.6446
n2.0
o2
n-0.668
o5
o0
v0
n-1.647
n2.0
o2
o2
o2
n-0.31747564
o5
v1
n2.5
o5
v0
n4.0
o44
o16
o5
v0
n2.0
o2
o2
o2
n-10.314876
o5
v1
n1.395
v0
o44
o16
o5
v0
n2.0
o2
o2
o2
n-13.783890000000001
o5
v1
n0.709
v0
o44
o0
o2
n-1.029
o5
o0
v1
n-1.203
n2.0
o2
n-0.693
o5
o0
v0
n-1.076
n2.0
o2
o2
o2
n-3.693187372
v0
o5
v1
n0.67
o44
o0
o2
n-0.782
o5
o0
v0
n-1.892
n2.0
o2
n-1.025
o5
o0
v1
n-1.2184
n2.0
o2
o2
o2
n-3.693187372
o5
v1
n0.67
o0
v0
n-1.892
o44
o0
o2
n-0.782
o5
o0
v0
n-1.892
n2.0
o2
n-1.025
o5
o0
v1
n-1.2184
n2.0
o2
o2
o2
o2
n4.560513
o5
v1
n1.524
o5
v0
n2.0
o0
o2
n-1.49
v0
n1.44381
o44
o0
o2
n-1.01
o5
o0
v1
n-0.992
n2.0
o2
n-0.745
o5
o0
v0
n-0.969
n2.0
o2
o2
o2
o2
n2.30244495
o5
v1
n2.25
o5
v0
n2.0
o0
v0
n-0.541
o44
o0
o2
n-1.056
o5
o0
v1
n-0.8226
n2.0
o2
n-0.65
o5
o0
v0
n-0.541
n2.0
o2
o2
o2
o2
n9.55223577
o5
v1
n0.709
o5
v0
n2.0
o0
v0
n-1.076
o44
o0
o2
n-1.029
o5
o0
v1
n-1.203
n2.0
o2
n-0.693
o5
o0
v0
n-1.076
n2.0
o2
o2
o2
o2
n3.714228
o5
v1
n0.7082
v0
o0
o2
n-1.336
v0
n2.2003920000000003
o44
o0
o2
n-0.57
o5
o0
v1
n-0.6446
n2.0
o2
n-0.668
o5
o0
v0
n-1.647
n2.0
o2
o2
o2
o2
n-1.7711115
o5
v1
n2.25
o5
v0
n2.0
o0
o2
n-1.3
v0
n0.7033
o44
o0
o2
n-1.056
o5
o0
v1
n-0.8226
n2.0
o2
n-0.65
o5
o0
v0
n-0.541
n2.0
o2
o2
o2
o2
n-6.79516437
o5
v1
n1.524
o5
v0
n2.0
o0
v0
n-0.969
o44
o0
o2
n-1.01
o5
o0
v1
n-0.992
n2.0
o2
n-0.745
o5
o0
v0
n-0.969
n2.0
o2
o2
o2
o2
n-4.962208608
v0
o5
v1
n0.7082
o0
v0
n-1.647
o44
o0
o2
n-0.57
o5
o0
v1
n-0.6446
n2.0
o2
n-0.668
o5
o0
v0
n-1.647
n2.0
o2
o2
o2
o2
n-6.891945000000001
o5
v1
n0.709
o5
v0
n2.0
o0
o2
n-1.386
v0
n1.491336
o44
o0
o2
n-1.029
o5
o0
v1
n-1.203
n2.0
o2
n-0.693
o5
o0
v0
n-1.076
n2.0
o2
o2
o2
o2
o2
n5.393694672
v0
o5
v1
n0.664
o0
v0
n-1.7864
o0
o2
n-1.272
v0
n2.2723008
o44
o0
o2
n-0.584
o5
o0
v1
n-0.711
n2.0
o2
n-0.636
o5
o0
v0
n-1.7864
n2.0
o2
o2
o2
o2
o2
n0.76748165
o5
v1
n2.25
o5
v0
n3.0
o0
v0
n-0.541
o0
o2
n-1.3
v0
n0.7033
o44
o0
o2
n-1.056
o5
o0
v1
n-0.8226
n2.0
o2
n-0.65
o5
o0
v0
n-0.541
n2.0
o2
o2
o2
o2
o2
n3.18407859
o5
v1
n0.709
o5
v0
n3.0
o0
v0
n-1.076
o0
o2
n-1.386
v0
n1.491336
o44
o0
o2
n-1.029
o5
o0
v1
n-1.203
n2.0
o2
n-0.693
o5
o0
v0
n-1.076
n2.0
o2
o2
o2
o2
o2
n-2.2650547899999998
o5
v1
n1.524
o5
v0
n3.0
o0
v0
n-0.969
o0
o2
n-1.49
v0
n1.44381
o44
o0
o2
n-1.01
o5
o0
v1
n-0.992
n2.0
o2
n-0.745
o5
o0
v0
n-0.969
n2.0
o2
o2
o2
o2
o2
n-2.927967112
v0
o5
v1
n0.635
o0
v0
n-1.46
o0
o2
n-1.736
v0
n2.53456
o44
o0
o2
n-0.613
o5
o0
v1
n-0.6306
n2.0
o2
n-0.868
o5
o0
v0
n-1.46
n2.0
o2
o2
o2
o2
o2
n-2.481104304
o5
v1
n0.7082
o5
v0
n2.0
o0
v0
n-1.647
o0
o2
n-1.336
v0
n2.2003920000000003
o44
o0
o2
n-0.57
o5
o0
v1
n-0.6446
n2.0
o2
n-0.668
o5
o0
v0
n-1.647
n2.0
o2
o2
o2
o2
o2
n-3.693187372
v0
o5
v1
n0.67
o0
v0
n-1.892
o0
o2
n-1.564
v0
n2.959088
o44
o0
o2
n-0.782
o5
o0
v0
n-1.892
n2.0
o2
n-1.025
o5
o0
v1
n-1.2184
n2.0
O8 0
o54
27
o2
n0.006267958
o5
v0
n4.0
o2
o2
n4.86767358
v0
o5
v1
n-0.538
o2
o2
n0.2191190872
o5
v0
n3.0
o5
v1
n0.20100000000000007
o2
o2
n0.223250247
o5
v0
n2.0
o5
v1
n-0.373
o2
o2
n0.1233365
o5
v0
n3.0
o44
o16
o5
v0
n2.0
o2
o2
n-0.34905814199999996
v0
o5
v1
n-0.6910000000000001
o2
o2
n-0.7583197961400001
o5
v0
n2.0
o5
v1
n0.11660000000000004
o2
o2
n-0.07224529680000001
o5
v0
n3.0
o5
v1
n0.31400000000000006
o2
o2
n-5.663008016
v0
o5
v1
n-0.4416
o2
o2
o2
n1.0710017950000001
v0
o5
v1
n-0.365
o44
o0
o2
n-0.613
o5
o0
v1
n-0.6306
n2.0
o2
n-0.868
o5
o0
v0
n-1.46
n2.0
o2
o2
o2
n2.316740604
o5
v0
n3.0
o5
v1
n0.524
o44
o0
o2
n-1.01
o5
o0
v1
n-0.992
n2.0
o2
n-0.745
o5
o0
v0
n-0.969
n2.0
o2
o2
o2
n2.3982086700000003
v0
o5
v1
n0.395
o44
o16
o5
v0
n2.0
o2
o2
o2
n0.6026997499999999
o5
v0
n2.0
o5
v1
n0.25
o44
o2
n-1.0
v0
o2
o2
o2
n1.3152081348
o5
v0
n2.0
o5
v1
n-0.29179999999999995
o44
o0
o2
n-0.57
o5
o0
v1
n-0.6446
n2.0
o2
n-0.668
o5
o0
v0
n-1.647
n2.0
o2
o2
o2
n1.58211991
v0
o5
v1
n-0.32999999999999996
o44
o0
o2
n-0.782
o5
o0
v0
n-1.892
n2.0
o2
n-1.025
o5
o0
v1
n-1.2184
n2.0
o2
o2
o2
n-1.328333625
o5
v0
n3.0
o5
v1
n1.25
o44
o0
o2
n-1.056
o5
o0
v1
n-0.8226
n2.0
o2
n-0.65
o5
o0
v0
n-0.541
n2.0
o2
o2
o2
n-3.1205485790000003
v0
o5
v1
n0.627
o44
o16
o5
v0
n2.0
o2
o2
o2
n-1.628796335
o5
v0
n3.0
o5
v1
n-0.29100000000000004
o44
o0
o2
n-1.029
o5
o0
v1
n-1.203
n2.0
o2
n-0.693
o5
o0
v0
n-1.076
n2.0
o2
o2
o2
n-2.815576464
v0
o5
v1
n-0.33599999999999997
o44
o0
o2
n-0.584
o5
o0
v1
n-0.711
n2.0
o2
n-0.636
o5
o0
v0
n-1.7864
n2.0
o2
o2
o2
n-0.198422275
o5
v0
n2.0
o5
v1
n1.5
o44
o16
o5
v0
n2.0
o2
o2
o2
o2
n1.686617
v0
o5
v1
n0.635
o0
o2
n-1.226
v1
n0.7731156
o44
o0
o2
n-0.613
o5
o0
v1
n-0.6306
n2.0
o2
n-0.868
o5
o0
v0
n-1.46
n2.0
o2
o2
o2
o2
n1.520171
o5
v0
n3.0
o5
v1
n1.524
o0
o2
n-2.02
v1
n2.00384
o44
o0
o2
n-1.01
o5
o0
v1
n-0.992
n2.0
o2
n-0.745
o5
o0
v0
n-0.969
n2.0
o2
o2
o2
o2
n2.361373
v0
o5
v1
n0.67
o0
o2
n-2.05
v1
n2.4977199999999997
o44
o0
o2
n-0.782
o5
o0
v0
n-1.892
n2.0
o2
n-1.025
o5
o0
v1
n-1.2184
n2.0
o2
o2
o2
o2
n1.857114
o5
v0
n2.0
o5
v1
n0.7082
o0
o2
n-1.14
v1
n0.7348439999999998
o44
o0
o2
n-0.57
o5
o0
v1
n-0.6446
n2.0
o2
n-0.668
o5
o0
v0
n-1.647
n2.0
o2
o2
o2
o2
n-4.240326
v0
o5
v1
n0.664
o0
o2
n-1.168
v1
n0.8304479999999999
o44
o0
o2
n-0.584
o5
o0
v1
n-0.711
n2.0
o2
n-0.636
o5
o0
v0
n-1.7864
n2.0
o2
o2
o2
o2
n-2.297315
o5
v0
n3.0
o5
v1
n0.709
o0
o2
n-2.058
v1
n2.475774
o44
o0
o2
n-1.029
o5
o0
v1
n-1.203
n2.0
o2
n-0.693
o5
o0
v0
n-1.076
n2.0
o2
o2
o2
o2
n-0.5903705
o5
v0
n3.0
o5
v1
n2.25
o0
o2
n-2.112
v1
n1.7373312
o44
o0
o2
n-1.056
o5
o0
v1
n-0.8226
n2.0
o2
n-0.65
o5
o0
v0
n-0.541
n2.0
O9 0
o54
46
o2
o2
n2.5007843398656
v0
o5
v1
n-1.4416
o2
o2
n0.24119917612199998
v0
o5
v1
n-1.691
o2
o2
n0.04404293652720002
o5
v0
n3.0
o5
v1
n-0.7989999999999999
o2
o2
n-0.022685023195200008
o5
v0
n3.0
o5
v1
n-0.6859999999999999
o2
o2
n-2.61880838604
v0
o5
v1
n-1.538
o2
o2
n-0.083272342131
o5
v0
n2.0
o5
v1
n-1.373
o2
o2
n-0.08842008822992405
o5
v0
n2.0
o5
v1
n-0.8834
o2
o2
o2
n0.4739797334850001
o5
v0
n3.0
o5
v1
n-1.291
o44
o0
o2
n-1.029
o5
o0
v1
n-1.203
n2.0
o2
n-0.693
o5
o0
v0
n-1.076
n2.0
o2
o2
o2
n4.72787427
o5
v0
n3.0
o5
v1
n0.709
o44
o0
o2
n-1.029
o5
o0
v1
n-1.203
n2.0
o2
n-0.693
o5
o0
v0
n-1.076
n2.0
o2
o2
o2
n0.15067493749999997
o5
v0
n2.0
o5
v1
n-0.75
o44
o2
n-1.0
v0
o2
o2
o2
n1.213972076496
o5
v0
n3.0
o5
v1
n-0.476
o44
o0
o2
n-1.01
o5
o0
v1
n-0.992
n2.0
o2
n-0.745
o5
o0
v0
n-0.969
n2.0
o2
o2
o2
n4.952700767999999
v0
o5
v1
n0.664
o44
o0
o2
n-0.584
o5
o0
v1
n-0.711
n2.0
o2
n-0.636
o5
o0
v0
n-1.7864
n2.0
o2
o2
o2
n1.246862496
o5
v0
n3.0
o5
v1
n2.25
o44
o0
o2
n-1.056
o5
o0
v1
n-0.8226
n2.0
o2
n-0.65
o5
o0
v0
n-0.541
n2.0
o2
o2
o2
n0.9460336919039999
v0
o5
v1
n-1.3359999999999999
o44
o0
o2
n-0.584
o5
o0
v1
n-0.711
n2.0
o2
n-0.636
o5
o0
v0
n-1.7864
n2.0
o2
o2
o2
n0.9472924246500002
v0
o5
v1
n-0.605
o44
o16
o5
v0
n2.0
o2
o2
o2
n-0.5220995703
v0
o5
v1
n-1.33
o44
o0
o2
n-0.782
o5
o0
v0
n-1.892
n2.0
o2
n-1.025
o5
o0
v1
n-1.2184
n2.0
o2
o2
o2
n-2.067792442
v0
o5
v1
n0.635
o44
o0
o2
n-0.613
o5
o0
v1
n-0.6306
n2.0
o2
n-0.868
o5
o0
v0
n-1.46
n2.0
o2
o2
o2
n-3.0707454199999997
o5
v0
n3.0
o5
v1
n1.524
o44
o0
o2
n-1.01
o5
o0
v1
n-0.992
n2.0
o2
n-0.745
o5
o0
v0
n-0.969
n2.0
o2
o2
o2
n-2.1171099599999996
o5
v0
n2.0
o5
v1
n0.7082
o44
o0
o2
n-0.57
o5
o0
v1
n-0.6446
n2.0
o2
n-0.668
o5
o0
v0
n-1.647
n2.0
o2
o2
o2
n-0.39091565517500004
v0
o5
v1
n-1.365
o44
o0
o2
n-0.613
o5
o0
v1
n-0.6306
n2.0
o2
n-0.868
o5
o0
v0
n-1.46
n2.0
o2
o2
o2
n-0.2976334125
o5
v0
n2.0
o5
v1
n0.5
o44
o16
o5
v0
n2.0
o2
o2
o2
n-4.8408146499999996
v0
o5
v1
n0.67
o44
o0
o2
n-0.782
o5
o0
v0
n-1.892
n2.0
o2
n-1.025
o5
o0
v1
n-1.2184
n2.0
o2
o2
o2
n-0.3837777337346399
o5
v0
n2.0
o5
v1
n-1.2917999999999998
o44
o0
o2
n-0.57
o5
o0
v1
n-0.6446
n2.0
o2
n-0.668
o5
o0
v0
n-1.647
n2.0
o2
o2
o2
n-1.66041703125
o5
v0
n3.0
o5
v1
n0.25
o44
o0
o2
n-1.056
o5
o0
v1
n-0.8226
n2.0
o2
n-0.65
o5
o0
v0
n-0.541
n2.0
o2
o2
o2
n-1.956583959033
v0
o5
v1
n-0.373
o44
o16
o5
v0
n2.0
o2
o2
o2
o2
n3.2885933099519997
v0
o5
v1
n-0.33599999999999997
o0
v1
n-0.711
o44
o0
o2
n-0.584
o5
o0
v1
n-0.711
n2.0
o2
n-0.636
o5
o0
v0
n-1.7864
n2.0
o2
o2
o2
o2
n3.35206285743
o5
v0
n3.0
o5
v1
n-0.29100000000000004
o0
v1
n-1.203
o44
o0
o2
n-1.029
o5
o0
v1
n-1.203
n2.0
o2
n-0.693
o5
o0
v0
n-1.076
n2.0
o2
o2
o2
o2
n1.0710017950000001
v0
o5
v1
n-0.365
o0
o2
n-1.226
v1
n0.7731156
o44
o0
o2
n-0.613
o5
o0
v1
n-0.6306
n2.0
o2
n-0.868
o5
o0
v0
n-1.46
n2.0
o2
o2
o2
o2
n2.316740604
o5
v0
n3.0
o5
v1
n0.524
o0
o2
n-2.02
v1
n2.00384
o44
o0
o2
n-1.01
o5
o0
v1
n-0.992
n2.0
o2
n-0.745
o5
o0
v0
n-0.969
n2.0
o2
o2
o2
o2
n1.3152081348
o5
v0
n2.0
o5
v1
n-0.29179999999999995
o0
o2
n-1.14
v1
n0.7348439999999998
o44
o0
o2
n-0.57
o5
o0
v1
n-0.6446
n2.0
o2
n-0.668
o5
o0
v0
n-1.647
n2.0
o2
o2
o2
o2
n2.805440616
o5
v0
n3.0
o5
v1
n1.25
o0
v1
n-0.8226
o44
o0
o2
n-1.056
o5
o0
v1
n-0.8226
n2.0
o2
n-0.65
o5
o0
v0
n-0.541
n2.0
o2
o2
o2
o2
n1.58211991
v0
o5
v1
n-0.32999999999999996
o0
o2
n-2.05
v1
n2.4977199999999997
o44
o0
o2
n-0.782
o5
o0
v0
n-1.892
n2.0
o2
n-1.025
o5
o0
v1
n-1.2184
n2.0
o2
o2
o2
o2
n-3.2433458154999997
v0
o5
v1
n-0.32999999999999996
o0
v1
n-1.2184
o44
o0
o2
n-0.782
o5
o0
v0
n-1.892
n2.0
o2
n-1.025
o5
o0
v1
n-1.2184
n2.0
o2
o2
o2
o2
n-4.6798160200800005
o5
v0
n3.0
o5
v1
n0.524
o0
v1
n-0.992
o44
o0
o2
n-1.01
o5
o0
v1
n-0.992
n2.0
o2
n-0.745
o5
o0
v0
n-0.969
n2.0
o2
o2
o2
o2
n-1.328333625
o5
v0
n3.0
o5
v1
n1.25
o0
o2
n-2.112
v1
n1.7373312
o44
o0
o2
n-1.056
o5
o0
v1
n-0.8226
n2.0
o2
n-0.65
o5
o0
v0
n-0.541
n2.0
o2
o2
o2
o2
n-1.4993372736719999
o5
v0
n2.0
o5
v1
n-0.29179999999999995
o0
v1
n-0.6446
o44
o0
o2
n-0.57
o5
o0
v1
n-0.6446
n2.0
o2
n-0.668
o5
o0
v0
n-1.647
n2.0
o2
o2
o2
o2
n-1.628796335
o5
v0
n3.0
o5
v1
n-0.29100000000000004
o0
o2
n-2.058
v1
n2.475774
o44
o0
o2
n-1.029
o5
o0
v1
n-1.203
n2.0
o2
n-0.693
o5
o0
v0
n-1.076
n2.0
o2
o2
o2
o2
n-1.3130482006700002
v0
o5
v1
n-0.365
o0
v1
n-0.6306
o44
o0
o2
n-0.613
o5
o0
v1
n-0.6306
n2.0
o2
n-0.868
o5
o0
v0
n-1.46
n2.0
o2
o2
o2
o2
n-2.815576464
v0
o5
v1
n-0.33599999999999997
o0
o2
n-1.168
v1
n0.8304479999999999
o44
o0
o2
n-0.584
o5
o0
v1
n-0.711
n2.0
o2
n-0.636
o5
o0
v0
n-1.7864
n2.0
o2
o2
o2
o2
o2
n4.72787427
o5
v0
n3.0
o5
v1
n0.709
o0
v1
n-1.203
o0
o2
n-2.058
v1
n2.475774
o44
o0
o2
n-1.029
o5
o0
v1
n-1.203
n2.0
o2
n-0.693
o5
o0
v0
n-1.076
n2.0
o2
o2
o2
o2
o2
n4.952700767999999
v0
o5
v1
n0.664
o0
v1
n-0.711
o0
o2
n-1.168
v1
n0.8304479999999999
o44
o0
o2
n-0.584
o5
o0
v1
n-0.711
n2.0
o2
n-0.636
o5
o0
v0
n-1.7864
n2.0
o2
o2
o2
o2
o2
n1.246862496
o5
v0
n3.0
o5
v1
n2.25
o0
v1
n-0.8226
o0
o2
n-2.112
v1
n1.7373312
o44
o0
o2
n-1.056
o5
o0
v1
n-0.8226
n2.0
o2
n-0.65
o5
o0
v0
n-0.541
n2.0
o2
o2
o2
o2
o2
n-2.067792442
v0
o5
v1
n0.635
o0
v1
n-0.6306
o0
o2
n-1.226
v1
n0.7731156
o44
o0
o2
n-0.613
o5
o0
v1
n-0.6306
n2.0
o2
n-0.868
o5
o0
v0
n-1.46
n2.0
o2
o2
o2
o2
o2
n-3.0707454199999997
o5
v0
n3.0
o5
v1
n1.524
o0
v1
n-0.992
o0
o2
n-2.02
v1
n2.00384
o44
o0
o2
n-1.01
o5
o0
v1
n-0.992
n2.0
o2
n-0.745
o5
o0
v0
n-0.969
n2.0
o2
o2
o2
o2
o2
n-2.1171099599999996
o5
v0
n2.0
o5
v1
n0.7082
o0
v1
n-0.6446
o0
o2
n-1.14
v1
n0.7348439999999998
o44
o0
o2
n-0.57
o5
o0
v1
n-0.6446
n2.0
o2
n-0.668
o5
o0
v0
n-1.647
n2.0
o2
o2
o2
o2
o2
n-4.8408146499999996
v0
o5
v1
n0.67
o0
v1
n-1.2184
o0
o2
n-2.05
v1
n2.4977199999999997
o44
o0
o2
n-0.782
o5
o0
v0
n-1.892
n2.0
o2
n-1.025
o5
o0
v1
n-1.2184
n2.0
O10 0
o54
46
o2
n4.86767358
o5
v1
n-0.538
o2
n0.025071832
o5
v0
n3.0
o2
n-0.34905814199999996
o5
v1
n-0.6910000000000001
o2
n-5.663008016
o5
v1
n-0.4416
o2
o2
n0.3700095
o5
v0
n2.0
o44
o16
o5
v0
n2.0
o2
o2
n0.446500494
v0
o5
v1
n-0.373
o2
o2
n1.0710017950000001
o5
v1
n-0.365
o44
o0
o2
n-0.613
o5
o0
v1
n-0.6306
n2.0
o2
n-0.868
o5
o0
v0
n-1.46
n2.0
o2
o2
n2.3982086700000003
o5
v1
n0.395
o44
o16
o5
v0
n2.0
o2
o2
n0.6573572616
o5
v1
n0.20100000000000007
o5
v0
n2.0
o2
o2
n1.58211991
o5
v1
n-0.32999999999999996
o44
o0
o2
n-0.782
o5
o0
v0
n-1.892
n2.0
o2
n-1.025
o5
o0
v1
n-1.2184
n2.0
o2
o2
n-1.5166395922800002
v0
o5
v1
n0.11660000000000004
o2
o2
n-3.1205485790000003
o5
v1
n0.627
o44
o16
o5
v0
n2.0
o2
o2
n-2.815576464
o5
v1
n-0.33599999999999997
o44
o0
o2
n-0.584
o5
o0
v1
n-0.711
n2.0
o2
n-0.636
o5
o0
v0
n-1.7864
n2.0
o2
o2
n-0.2167358904
o5
v1
n0.31400000000000006
o5
v0
n2.0
o2
o2
n-0.246673
o5
v0
n4.0
o44
o16
o5
v0
n2.0
o2
o2
o2
n6.2410971580000005
o5
v1
n0.627
o5
v0
n2.0
o44
o16
o5
v0
n2.0
o2
o2
o2
n6.9502218120000006
o5
v1
n0.524
o5
v0
n2.0
o44
o0
o2
n-1.01
o5
o0
v1
n-0.992
n2.0
o2
n-0.745
o5
o0
v0
n-0.969
n2.0
o2
o2
o2
n1.2053994999999997
v0
o5
v1
n0.25
o44
o2
n-1.0
v0
o2
o2
o2
n4.952700767999999
o5
v1
n0.664
o0
v1
n-0.711
o44
o0
o2
n-0.584
o5
o0
v1
n-0.711
n2.0
o2
n-0.636
o5
o0
v0
n-1.7864
n2.0
o2
o2
o2
n2.6304162696
v0
o5
v1
n-0.29179999999999995
o44
o0
o2
n-0.57
o5
o0
v1
n-0.6446
n2.0
o2
n-0.668
o5
o0
v0
n-1.647
n2.0
o2
o2
o2
n0.39684455
o5
v1
n1.5
o5
v0
n3.0
o44
o16
o5
v0
n2.0
o2
o2
o2
n-2.067792442
o5
v1
n0.635
o0
v1
n-0.6306
o44
o0
o2
n-0.613
o5
o0
v1
n-0.6306
n2.0
o2
n-0.868
o5
o0
v0
n-1.46
n2.0
o2
o2
o2
n-4.886389005
o5
v1
n-0.29100000000000004
o5
v0
n2.0
o44
o0
o2
n-1.029
o5
o0
v1
n-1.203
n2.0
o2
n-0.693
o5
o0
v0
n-1.076
n2.0
o2
o2
o2
n-3.985000875
o5
v1
n1.25
o5
v0
n2.0
o44
o0
o2
n-1.056
o5
o0
v1
n-0.8226
n2.0
o2
n-0.65
o5
o0
v0
n-0.541
n2.0
o2
o2
o2
n-4.7964173400000005
o5
v1
n0.395
o5
v0
n2.0
o44
o16
o5
v0
n2.0
o2
o2
o2
n-0.6026997499999999
o5
v1
n0.25
o5
v0
n2.0
o44
o2
n-1.0
v0
o2
o2
o2
n-4.8408146499999996
o5
v1
n0.67
o0
v1
n-1.2184
o44
o0
o2
n-0.782
o5
o0
v0
n-1.892
n2.0
o2
n-1.025
o5
o0
v1
n-1.2184
n2.0
o2
o2
o2
n-0.39684455
v0
o5
v1
n1.5
o44
o16
o5
v0
n2.0
o2
o2
o2
o2
n3.740587488
o5
v1
n2.25
o5
v0
n2.0
o0
v1
n-0.8226
o44
o0
o2
n-1.056
o5
o0
v1
n-0.8226
n2.0
o2
n-0.65
o5
o0
v0
n-0.541
n2.0
o2
o2
o2
o2
n1.0710017950000001
v0
o5
v1
n-0.365
o0
o2
n-1.736
v0
n2.53456
o44
o0
o2
n-0.613
o5
o0
v1
n-0.6306
n2.0
o2
n-0.868
o5
o0
v0
n-1.46
n2.0
o2
o2
o2
o2
n2.316740604
o5
v1
n0.524
o5
v0
n3.0
o0
o2
n-1.49
v0
n1.44381
o44
o0
o2
n-1.01
o5
o0
v1
n-0.992
n2.0
o2
n-0.745
o5
o0
v0
n-0.969
n2.0
o2
o2
o2
o2
n1.3152081348
o5
v1
n-0.29179999999999995
o5
v0
n2.0
o0
o2
n-1.336
v0
n2.2003920000000003
o44
o0
o2
n-0.57
o5
o0
v1
n-0.6446
n2.0
o2
n-0.668
o5
o0
v0
n-1.647
n2.0
o2
o2
o2
o2
n1.58211991
v0
o5
v1
n-0.32999999999999996
o0
o2
n-1.564
v0
n2.959088
o44
o0
o2
n-0.782
o5
o0
v0
n-1.892
n2.0
o2
n-1.025
o5
o0
v1
n-1.2184
n2.0
o2
o2
o2
o2
n14.183622810000001
o5
v1
n0.709
o5
v0
n2.0
o0
v1
n-1.203
o44
o0
o2
n-1.029
o5
o0
v1
n-1.203
n2.0
o2
n-0.693
o5
o0
v0
n-1.076
n2.0
o2
o2
o2
o2
n-1.328333625
o5
v1
n1.25
o5
v0
n3.0
o0
o2
n-1.3
v0
n0.7033
o44
o0
o2
n-1.056
o5
o0
v1
n-0.8226
n2.0
o2
n-0.65
o5
o0
v0
n-0.541
n2.0
o2
o2
o2
o2
n-4.234219919999999
v0
o5
v1
n0.7082
o0
v1
n-0.6446
o44
o0
o2
n-0.57
o5
o0
v1
n-0.6446
n2.0
o2
n-0.668
o5
o0
v0
n-1.647
n2.0
o2
o2
o2
o2
n-9.212236260000001
o5
v1
n1.524
o5
v0
n2.0
o0
v1
n-0.992
o44
o0
o2
n-1.01
o5
o0
v1
n-0.992
n2.0
o2
n-0.745
o5
o0
v0
n-0.969
n2.0
o2
o2
o2
o2
n-1.628796335
o5
v1
n-0.29100000000000004
o5
v0
n3.0
o0
o2
n-1.386
v0
n1.491336
o44
o0
o2
n-1.029
o5
o0
v1
n-1.203
n2.0
o2
n-0.693
o5
o0
v0
n-1.076
n2.0
o2
o2
o2
o2
n-2.815576464
v0
o5
v1
n-0.33599999999999997
o0
o2
n-1.272
v0
n2.2723008
o44
o0
o2
n-0.584
o5
o0
v1
n-0.711
n2.0
o2
n-0.636
o5
o0
v0
n-1.7864
n2.0
o2
o2
o2
o2
o2
n4.72787427
o5
v1
n0.709
o5
v0
n3.0
o0
v1
n-1.203
o0
o2
n-1.386
v0
n1.491336
o44
o0
o2
n-1.029
o5
o0
v1
n-1.203
n2.0
o2
n-0.693
o5
o0
v0
n-1.076
n2.0
o2
o2
o2
o2
o2
n4.952700767999999
v0
o5
v1
n0.664
o0
v1
n-0.711
o0
o2
n-1.272
v0
n2.2723008
o44
o0
o2
n-0.584
o5
o0
v1
n-0.711
n2.0
o2
n-0.636
o5
o0
v0
n-1.7864
n2.0
o2
o2
o2
o2
o2
n1.246862496
o5
v1
n2.25
o5
v0
n3.0
o0
v1
n-0.8226
o0
o2
n-1.3
v0
n0.7033
o44
o0
o2
n-1.056
o5
o0
v1
n-0.8226
n2.0
o2
n-0.65
o5
o0
v0
n-0.541
n2.0
o2
o2
o2
o2
o2
n-2.067792442
v0
o5
v1
n0.635
o0
v1
n-0.6306
o0
o2
n-1.736
v0
n2.53456
o44
o0
o2
n-0.613
o5
o0
v1
n-0.6306
n2.0
o2
n-0.868
o5
o0
v0
n-1.46
n2.0
o2
o2
o2
o2
o2
n-3.0707454199999997
o5
v1
n1.524
o5
v0
n3.0
o0
v1
n-0.992
o0
o2
n-1.49
v0
n1.44381
o44
o0
o2
n-1.01
o5
o0
v1
n-0.992
n2.0
o2
n-0.745
o5
o0
v0
n-0.969
n2.0
o2
o2
o2
o2
o2
n-2.1171099599999996
o5
v1
n0.7082
o5
v0
n2.0
o0
v1
n-0.6446
o0
o2
n-1.336
v0
n2.2003920000000003
o44
o0
o2
n-0.57
o5
o0
v1
n-0.6446
n2.0
o2
n-0.668
o5
o0
v0
n-1.647
n2.0
o2
o2
o2
o2
o2
n-4.8408146499999996
v0
o5
v1
n0.67
o0
v1
n-1.2184
o0
o2
n-1.564
v0
n2.959088
o44
o0
o2
n-0.782
o5
o0
v0
n-1.892
n2.0
o2
n-1.025
o5
o0
v1
n-1.2184
n2.0
O11 0
o0
o54
6
o2
n0.7561385728476524
o5
o0
o16
o3
n1
v1
n1
n0.433
o2
n7.456420463900972
o5
o0
o16
o3
n1
v1
n1
n0.632
o2
n-7.667110838528095
o5
o0
o16
o3
n1
v1
n1
n0.773
o2
n31.91516196841129
o5
o0
o16
o3
n1
v1
n1
n2.187
o2
n-55.84889038663615
o5
o0
o16
o3
n1
v1
n1
n2.427
o2
n25.60708660267712
o5
o0
o16
o3
n1
v1
n1
n2.681
n1.0
O12 0
o44
o2
v1
o54
6
o2
n0.2331216679164502
o5
o0
o16
o3
n1
v1
n1
n0.324
o2
n-3.698059063742354
o5
o0
o16
o3
n1
v1
n1
n0.491
o2
n0.4327794907483545
o5
o0
o16
o3
n1
v1
n1
n1.733
o2
n-0.5108769415735642
o5
o0
o16
o3
n1
v1
n1
n2.191
o2
n2131.2963725894447
o5
o0
o16
o3
n1
v1
n1
n15.506
o2
n-3924.052231017246
o5
o0
o16
o3
n1
v1
n1
n16.417
O13 0
n0.0
x2
0 1.00000001
1 1.0
r
b
3
3
k1
0
G0 2
0 0
1 2.4234599781
G1 1
0 0
G2 1
0 0
G3 1
1 0
G4 1
1 0
G5 2
0 0
1 0
G6 2
0 0
1 0
G7 2
0 0
1 0
G8 2
0 0
1 0
G9 2
0 0
1 0
G10 2
0 0
1 0
G11 1
1 0
G12 1
1 0
